c colouring generated by benchmark framework
p edge 74 301
v 1 1
v 2 0
v 3 9
v 4 9
v 5 9
v 6 9
v 7 0
v 8 7
v 9 2
v 10 3
v 11 8
v 12 3
v 13 6
v 14 3
v 15 0
v 16 8
v 17 0
v 18 8
v 19 6
v 20 2
v 21 5
v 22 3
v 23 1
v 24 5
v 25 3
v 26 0
v 27 2
v 28 1
v 29 7
v 30 4
v 31 6
v 32 10
v 33 2
v 34 3
v 35 4
v 36 0
v 37 5
v 38 0
v 39 6
v 40 2
v 41 1
v 42 8
v 43 6
v 44 4
v 45 6
v 46 2
v 47 2
v 48 5
v 49 0
v 50 4
v 51 3
v 52 1
v 53 5
v 54 0
v 55 10
v 56 5
v 57 4
v 58 9
v 59 5
v 60 3
v 61 2
v 62 6
v 63 0
v 64 4
v 65 3
v 66 0
v 67 7
v 68 8
v 69 4
v 70 10
v 71 7
v 72 7
v 73 0
v 74 2
